8510
8532
8364
8391
8554
8519
8559
8488
8549
8600
8423
8487
8429
8493
8336
8459
8622
8493
8462
8413
8570
8465
8616
8512
8507
8497
8587
8506
8435
8282
8472
8569
8438
8375
8526
8080
8425
8601
8448
8407
8479
8442
8532
8380
8577
8580
8262
8467
8508
8425
8343
8561
8488
8456
8422
8356
8493
8369
8317
8453
8361
8489
8381
8495
8535
8338
8476
8438
8554
8460
8533
8538
8368
8486
8346
8519
8532
8321
8615
8434
8494
8408
8580
8452
8423
8563
8445
8438
8379
8381
8552
8341
8423
8412
8433
8564
8452
8454
8411
8425
